40
1 0 1
2 0 21
2 1 37
3 2 5
4 0 18
5 1 17
5 2 22
5 3 18
5 4 9
6 3 33
6 5 12
7 0 26
7 1 20
7 2 9
7 3 5
7 6 28
8 0 18
8 3 13
8 4 22
8 5 27
8 6 29
9 0 5
9 2 39
9 4 35
9 8 1
10 0 28
10 1 21
10 2 10
10 3 14
10 4 40
10 7 32
10 9 16
11 0 3
11 1 9
11 2 26
11 3 25
11 5 15
11 7 17
11 8 31
11 10 14
12 0 36
12 1 34
12 2 19
12 3 14
12 4 7
12 5 24
12 6 28
12 7 1
12 8 4
12 9 34
12 10 25
12 11 17
13 0 33
13 2 19
13 4 24
13 5 38
13 6 9
13 7 12
13 9 10
13 10 10
13 11 1
13 12 38
14 0 28
14 1 26
14 2 8
14 4 7
14 7 14
14 10 12
14 12 11
14 13 5
15 1 24
15 2 9
15 4 12
15 6 31
15 7 9
15 8 7
15 10 24
15 11 18
15 12 4
15 13 8
15 14 8
16 0 34
16 1 12
16 2 2
16 4 34
16 5 35
16 7 8
16 8 3
16 10 10
16 11 37
16 12 20
16 13 9
16 14 28
16 15 3
17 0 23
17 3 34
17 4 5
17 5 21
17 6 10
17 7 6
17 8 40
17 9 12
17 11 1
17 12 32
17 13 33
17 14 5
17 15 2
17 16 16
18 0 14
18 1 3
18 3 25
18 4 14
18 6 12
18 7 15
18 8 30
18 10 15
18 11 15
18 12 5
18 14 30
19 1 15
19 2 5
19 3 3
19 4 28
19 5 16
19 6 7
19 8 16
19 9 27
19 11 1
19 12 30
19 14 36
19 15 17
19 16 9
19 17 35
19 18 7
20 0 6
20 1 33
20 3 32
20 6 24
20 7 30
20 8 20
20 9 5
20 10 1
20 11 16
20 12 23
20 13 31
20 14 5
20 15 40
20 16 3
20 17 33
20 18 2
20 19 10
21 1 8
21 2 26
21 5 32
21 8 14
21 9 28
21 11 17
21 13 35
21 15 31
21 18 18
21 19 36
22 0 10
22 1 40
22 2 6
22 3 33
22 4 33
22 8 26
22 9 40
22 10 22
22 11 11
22 12 12
22 13 18
22 14 18
22 16 13
22 17 5
22 18 23
22 19 36
23 0 24
23 1 20
23 2 24
23 3 34
23 4 2
23 5 18
23 6 34
23 8 30
23 9 12
23 11 40
23 12 2
23 13 39
23 14 37
23 15 36
23 17 10
23 19 33
23 20 35
23 22 25
24 0 17
24 1 4
24 3 24
24 4 37
24 5 4
24 6 31
24 9 40
24 12 40
24 13 15
24 15 21
24 16 27
24 17 10
24 21 21
24 23 21
25 0 29
25 1 22
25 3 21
25 8 30
25 9 37
25 10 21
25 11 23
25 12 3
25 13 3
25 14 33
25 15 17
25 17 9
25 18 4
25 19 14
25 21 35
25 22 35
25 23 37
26 0 37
26 2 14
26 3 19
26 4 5
26 6 8
26 7 27
26 8 37
26 9 14
26 10 4
26 11 11
26 12 6
26 13 13
26 14 24
26 15 38
26 17 23
26 18 29
26 19 40
26 20 16
26 21 11
26 23 7
27 0 18
27 2 16
27 4 22
27 5 34
27 6 5
27 7 34
27 8 12
27 10 30
27 11 10
27 12 17
27 13 2
27 14 4
27 15 29
27 17 10
27 18 30
27 20 13
27 21 38
27 22 27
27 23 14
27 25 12
28 1 3
28 2 9
28 4 29
28 5 18
28 6 34
28 8 1
28 9 34
28 10 36
28 13 8
28 14 24
28 16 36
28 17 40
28 18 1
28 20 11
28 21 9
28 22 3
28 23 37
28 27 20
29 1 9
29 3 19
29 5 13
29 6 33
29 7 7
29 8 31
29 9 21
29 10 24
29 11 1
29 13 18
29 15 8
29 16 23
29 17 26
29 18 35
29 20 32
29 21 25
29 25 26
29 27 30
29 28 27
30 0 18
30 2 3
30 3 24
30 4 15
30 6 8
30 8 27
30 11 40
30 12 26
30 13 31
30 14 37
30 15 2
30 18 19
30 19 5
30 20 7
30 22 5
30 24 5
30 26 39
30 27 20
30 28 6
31 0 32
31 2 12
31 3 21
31 5 10
31 7 19
31 8 14
31 9 8
31 10 16
31 12 27
31 16 33
31 17 28
31 18 19
31 19 31
31 20 4
31 21 10
31 22 35
31 23 14
31 24 11
31 25 1
31 26 15
31 28 13
31 30 30
32 1 39
32 3 36
32 5 8
32 6 37
32 9 4
32 10 6
32 11 11
32 12 13
32 13 21
32 14 31
32 15 30
32 17 13
32 18 8
32 20 30
32 23 28
32 25 20
32 28 10
32 29 40
32 31 28
33 1 25
33 2 36
33 3 30
33 6 2
33 8 20
33 10 30
33 11 10
33 12 19
33 14 31
33 15 35
33 16 39
33 17 33
33 19 12
33 21 39
33 22 24
33 23 8
33 24 14
33 25 15
33 27 30
33 30 26
33 31 16
34 3 17
34 4 28
34 5 39
34 8 33
34 9 7
34 14 29
34 15 5
34 17 6
34 18 25
34 19 8
34 20 20
34 21 30
34 23 19
34 24 39
34 25 23
34 26 29
34 27 4
34 28 40
34 29 23
34 30 16
34 31 19
34 32 25
34 33 30
35 1 26
35 2 33
35 3 11
35 5 8
35 6 17
35 10 5
35 11 37
35 13 19
35 14 12
35 16 6
35 18 29
35 19 29
35 20 15
35 22 4
35 24 33
35 26 36
35 27 22
35 28 14
35 29 33
35 32 29
35 33 38
35 34 18
36 0 14
36 4 7
36 5 13
36 6 33
36 7 11
36 8 6
36 9 31
36 10 24
36 11 18
36 12 6
36 13 33
36 14 3
36 15 10
36 16 39
36 17 16
36 18 30
36 19 25
36 23 19
36 24 34
36 25 27
36 26 3
36 27 6
36 28 28
36 29 37
36 30 25
36 32 24
36 33 26
36 34 27
36 35 15
37 0 35
37 1 18
37 2 19
37 3 7
37 4 30
37 5 24
37 6 12
37 9 23
37 11 31
37 12 1
37 13 13
37 14 17
37 16 23
37 17 9
37 18 28
37 19 24
37 21 6
37 22 17
37 24 12
37 25 6
37 26 36
37 27 37
37 28 3
37 29 7
37 34 6
37 35 3
37 36 29
38 0 19
38 1 12
38 3 17
38 4 4
38 5 11
38 7 34
38 8 30
38 9 37
38 10 32
38 11 15
38 12 1
38 13 5
38 17 3
38 19 25
38 20 6
38 21 9
38 22 3
38 23 33
38 24 32
38 25 19
38 27 4
38 29 29
38 31 12
38 32 22
38 34 7
38 36 30
38 37 31
39 0 35
39 1 34
39 2 37
39 3 10
39 4 9
39 5 3
39 6 38
39 10 27
39 13 7
39 15 13
39 16 8
39 17 33
39 18 23
39 19 9
39 20 9
39 22 27
39 23 37
39 24 5
39 25 10
39 26 38
39 27 33
39 28 28
39 29 10
39 30 23
39 31 18
39 34 1
39 35 17
39 37 21
39 38 6
